c FILE /home/rafael/Documents/HappySet/MIHS/inputs/happygen/output/graph_d_regular_k3_p0.5_v50_20241127_082607.txt
c SOURCE This is a d-regular graph formed for the happy graph colouring problem.
c DESCRIPTION It was generated using the problem generator of Rhyd Lewis
c
c GRAPH STATS
c Seed                             = -87220725
c Number of Nodes                  = 50
c Number of colours k              = 3
c Number of pre-assignments        = 25
c Degree of all vertices           = 6
c Density                          = 0.122449
c 
c The degrees of nodes 1 to 50, respectively, are as follows 
c [6, 6, 6, 6, 6, 6, 6, 6, 6, 6, 6, 6, 6, 6, 6, 6, 6, 6, 6, 6, 6, 6, 6, 6, 6, 6, 
c  6, 6, 6, 6, 6, 6, 6, 6, 6, 6, 6, 6, 6, 6, 6, 6, 6, 6, 6, 6, 6, 6, 6, 6] 
c  
p edge 50 150 3
e 1 6
e 1 13
e 1 20
e 1 35
e 1 36
e 1 47
e 2 5
e 2 10
e 2 22
e 2 26
e 2 34
e 2 42
e 3 4
e 3 11
e 3 14
e 3 19
e 3 30
e 3 32
e 4 7
e 4 14
e 4 29
e 4 31
e 4 33
e 5 9
e 5 19
e 5 21
e 5 39
e 5 49
e 6 14
e 6 28
e 6 32
e 6 38
e 6 48
e 7 33
e 7 37
e 7 38
e 7 44
e 7 47
e 8 11
e 8 15
e 8 16
e 8 37
e 8 42
e 8 46
e 9 22
e 9 29
e 9 31
e 9 34
e 9 39
e 10 26
e 10 27
e 10 31
e 10 40
e 10 44
e 11 18
e 11 23
e 11 25
e 11 31
e 12 15
e 12 22
e 12 23
e 12 35
e 12 38
e 12 47
e 13 16
e 13 17
e 13 25
e 13 31
e 13 36
e 14 30
e 14 34
e 14 36
e 15 24
e 15 40
e 15 43
e 15 50
e 16 24
e 16 26
e 16 32
e 16 49
e 17 27
e 17 36
e 17 42
e 17 45
e 17 46
e 18 37
e 18 41
e 18 43
e 18 46
e 18 48
e 19 23
e 19 44
e 19 46
e 19 47
e 20 21
e 20 24
e 20 27
e 20 29
e 20 47
e 21 23
e 21 26
e 21 44
e 21 45
e 22 25
e 22 30
e 22 36
e 23 27
e 23 49
e 24 30
e 24 43
e 24 49
e 25 28
e 25 34
e 25 50
e 26 39
e 26 43
e 27 42
e 27 49
e 28 38
e 28 41
e 28 43
e 28 45
e 29 32
e 29 33
e 29 48
e 30 43
e 30 45
e 31 45
e 32 41
e 32 48
e 33 37
e 33 38
e 33 39
e 34 37
e 34 39
e 35 37
e 35 40
e 35 46
e 35 48
e 36 50
e 38 50
e 39 40
e 40 42
e 40 47
e 41 44
e 41 48
e 41 50
e 42 44
e 45 50
e 46 49
n 4 1
n 5 2
n 6 3
n 9 2
n 10 2
n 11 2
n 12 2
n 16 3
n 19 2
n 20 2
n 21 2
n 23 2
n 25 2
n 27 2
n 30 2
n 32 3
n 34 2
n 36 3
n 39 2
n 41 3
n 42 2
n 43 2
n 46 2
n 47 2
n 48 3
